1 1 2 0
1 -3 4 0
1 -5 6 0
1 2 -6 0
1 -7 -8 0
1 -9 -7 0
1 10 -11 0
1 -12 -13 0
1 12 -14 0
1 -15 16 0
1 15 9 0
1 8 13 0
1 -8 1 0
1 11 -17 0
1 -18 19 0
1 -16 -20 0
1 -21 22 0
1 -23 -16 0
1 20 -22 0
1 -24 -10 0
1 -24 -14 0
1 -25 26 0
1 27 2 0
1 28 -29 0
1 -28 5 0
1 28 27 0
1 -19 -4 0
1 30 -19 0
1 30 -2 0
1 -31 32 0
1 -33 -31 0
1 -17 -14 0
1 14 -11 0
1 14 -12 0
1 -14 34 0
1 -35 17 0
1 -36 -33 0
1 36 17 0
1 -36 -35 0
